p cnf 200 1110
-101 -81 0
-101 -6 0
-101 89 0
-101 -95 0
-101 52 0
-101 -48 0
-101 -18 0
-101 -53 0
-101 27 0
-101 -58 0
101 81 6 -89 95 -52 48 18 53 -27 58 0
-102 -23 0
-102 14 0
-102 -32 0
-102 99 0
-102 3 0
-102 24 0
-102 -86 0
-102 79 0
-102 -51 0
-102 -58 0
102 23 -14 32 -99 -3 -24 86 -79 51 58 0
-103 10 0
-103 -20 0
-103 -94 0
-103 92 0
-103 77 0
-103 73 0
-103 -7 0
-103 51 0
-103 68 0
-103 3 0
103 -10 20 94 -92 -77 -73 7 -51 -68 -3 0
-104 93 0
-104 -50 0
-104 -91 0
-104 22 0
-104 -82 0
-104 37 0
-104 -2 0
-104 -44 0
-104 35 0
-104 -73 0
104 -93 50 91 -22 82 -37 2 44 -35 73 0
-105 90 0
-105 6 0
-105 -29 0
-105 -89 0
-105 -56 0
-105 21 0
-105 -83 0
-105 -22 0
-105 -36 0
-105 78 0
105 -90 -6 29 89 56 -21 83 22 36 -78 0
-106 -97 0
-106 -68 0
-106 3 0
-106 57 0
-106 42 0
-106 58 0
-106 -13 0
-106 61 0
-106 -30 0
-106 17 0
106 97 68 -3 -57 -42 -58 13 -61 30 -17 0
-107 -99 0
-107 89 0
-107 96 0
-107 -82 0
-107 13 0
-107 36 0
-107 -45 0
-107 -70 0
-107 69 0
-107 34 0
107 99 -89 -96 82 -13 -36 45 70 -69 -34 0
-108 -10 0
-108 -44 0
-108 17 0
-108 16 0
-108 85 0
-108 95 0
-108 -29 0
-108 99 0
-108 -65 0
-108 52 0
108 10 44 -17 -16 -85 -95 29 -99 65 -52 0
-109 38 0
-109 78 0
-109 25 0
-109 -49 0
-109 -83 0
-109 19 0
-109 92 0
-109 47 0
-109 20 0
-109 17 0
109 -38 -78 -25 49 83 -19 -92 -47 -20 -17 0
-110 51 0
-110 79 0
-110 89 0
-110 96 0
-110 -65 0
-110 80 0
-110 -15 0
-110 23 0
-110 66 0
-110 31 0
110 -51 -79 -89 -96 65 -80 15 -23 -66 -31 0
101 102 103 104 105 106 107 108 109 110 0
-111 -1 0
-111 -40 0
-111 -99 0
-111 -60 0
-111 -49 0
-111 68 0
-111 36 0
-111 9 0
-111 16 0
-111 83 0
111 1 40 99 60 49 -68 -36 -9 -16 -83 0
-112 -92 0
-112 -1 0
-112 31 0
-112 83 0
-112 -73 0
-112 15 0
-112 -94 0
-112 41 0
-112 -13 0
-112 56 0
112 92 1 -31 -83 73 -15 94 -41 13 -56 0
-113 -21 0
-113 10 0
-113 -22 0
-113 64 0
-113 -50 0
-113 15 0
-113 -68 0
-113 55 0
-113 61 0
-113 -81 0
113 21 -10 22 -64 50 -15 68 -55 -61 81 0
-114 -42 0
-114 -44 0
-114 -50 0
-114 1 0
-114 85 0
-114 -61 0
-114 -23 0
-114 -89 0
-114 18 0
-114 88 0
114 42 44 50 -1 -85 61 23 89 -18 -88 0
-115 -35 0
-115 92 0
-115 -7 0
-115 90 0
-115 23 0
-115 -46 0
-115 59 0
-115 64 0
-115 -3 0
-115 -4 0
115 35 -92 7 -90 -23 46 -59 -64 3 4 0
-116 89 0
-116 57 0
-116 -45 0
-116 -56 0
-116 8 0
-116 65 0
-116 81 0
-116 -34 0
-116 69 0
-116 36 0
116 -89 -57 45 56 -8 -65 -81 34 -69 -36 0
-117 -43 0
-117 40 0
-117 31 0
-117 83 0
-117 -4 0
-117 -87 0
-117 -57 0
-117 1 0
-117 73 0
-117 -39 0
117 43 -40 -31 -83 4 87 57 -1 -73 39 0
-118 -11 0
-118 -54 0
-118 85 0
-118 22 0
-118 21 0
-118 7 0
-118 55 0
-118 -25 0
-118 -82 0
-118 -20 0
118 11 54 -85 -22 -21 -7 -55 25 82 20 0
-119 97 0
-119 -45 0
-119 -22 0
-119 -84 0
-119 -2 0
-119 -54 0
-119 64 0
-119 -1 0
-119 68 0
-119 -91 0
119 -97 45 22 84 2 54 -64 1 -68 91 0
-120 40 0
-120 76 0
-120 38 0
-120 92 0
-120 -17 0
-120 4 0
-120 -18 0
-120 -98 0
-120 56 0
-120 48 0
120 -40 -76 -38 -92 17 -4 18 98 -56 -48 0
111 112 113 114 115 116 117 118 119 120 0
-121 -39 0
-121 -18 0
-121 27 0
-121 -19 0
-121 68 0
-121 -57 0
-121 58 0
-121 25 0
-121 42 0
-121 -64 0
121 39 18 -27 19 -68 57 -58 -25 -42 64 0
-122 -15 0
-122 93 0
-122 -65 0
-122 68 0
-122 38 0
-122 36 0
-122 -62 0
-122 98 0
-122 37 0
-122 70 0
122 15 -93 65 -68 -38 -36 62 -98 -37 -70 0
-123 -44 0
-123 48 0
-123 -46 0
-123 -51 0
-123 -86 0
-123 -42 0
-123 -74 0
-123 68 0
-123 -78 0
-123 98 0
123 44 -48 46 51 86 42 74 -68 78 -98 0
-124 75 0
-124 88 0
-124 -40 0
-124 84 0
-124 -66 0
-124 -42 0
-124 -72 0
-124 37 0
-124 -97 0
-124 53 0
124 -75 -88 40 -84 66 42 72 -37 97 -53 0
-125 6 0
-125 -16 0
-125 61 0
-125 -7 0
-125 -5 0
-125 -4 0
-125 81 0
-125 24 0
-125 55 0
-125 43 0
125 -6 16 -61 7 5 4 -81 -24 -55 -43 0
-126 33 0
-126 -81 0
-126 -34 0
-126 -65 0
-126 91 0
-126 -17 0
-126 -54 0
-126 -49 0
-126 -5 0
-126 1 0
126 -33 81 34 65 -91 17 54 49 5 -1 0
-127 -96 0
-127 -50 0
-127 -9 0
-127 13 0
-127 -40 0
-127 71 0
-127 -3 0
-127 65 0
-127 -44 0
-127 -51 0
127 96 50 9 -13 40 -71 3 -65 44 51 0
-128 -49 0
-128 81 0
-128 14 0
-128 69 0
-128 18 0
-128 8 0
-128 -97 0
-128 -77 0
-128 50 0
-128 31 0
128 49 -81 -14 -69 -18 -8 97 77 -50 -31 0
-129 -68 0
-129 80 0
-129 -55 0
-129 -67 0
-129 13 0
-129 -76 0
-129 -51 0
-129 -2 0
-129 46 0
-129 -93 0
129 68 -80 55 67 -13 76 51 2 -46 93 0
-130 35 0
-130 90 0
-130 11 0
-130 40 0
-130 -45 0
-130 50 0
-130 -38 0
-130 -3 0
-130 -98 0
-130 54 0
130 -35 -90 -11 -40 45 -50 38 3 98 -54 0
121 122 123 124 125 126 127 128 129 130 0
-131 -42 0
-131 63 0
-131 59 0
-131 -70 0
-131 23 0
-131 85 0
-131 -88 0
-131 48 0
-131 7 0
-131 67 0
131 42 -63 -59 70 -23 -85 88 -48 -7 -67 0
-132 -50 0
-132 15 0
-132 78 0
-132 40 0
-132 -4 0
-132 -100 0
-132 -6 0
-132 -95 0
-132 -91 0
-132 75 0
132 50 -15 -78 -40 4 100 6 95 91 -75 0
-133 -79 0
-133 100 0
-133 8 0
-133 -28 0
-133 -41 0
-133 72 0
-133 -93 0
-133 66 0
-133 57 0
-133 19 0
133 79 -100 -8 28 41 -72 93 -66 -57 -19 0
-134 80 0
-134 19 0
-134 -88 0
-134 -57 0
-134 -89 0
-134 -41 0
-134 -54 0
-134 -44 0
-134 -28 0
-134 -14 0
134 -80 -19 88 57 89 41 54 44 28 14 0
-135 27 0
-135 -31 0
-135 56 0
-135 -84 0
-135 53 0
-135 -35 0
-135 77 0
-135 22 0
-135 -91 0
-135 32 0
135 -27 31 -56 84 -53 35 -77 -22 91 -32 0
-136 14 0
-136 -61 0
-136 -60 0
-136 43 0
-136 -71 0
-136 -75 0
-136 97 0
-136 -50 0
-136 24 0
-136 -99 0
136 -14 61 60 -43 71 75 -97 50 -24 99 0
-137 -14 0
-137 6 0
-137 -43 0
-137 1 0
-137 93 0
-137 -24 0
-137 -30 0
-137 10 0
-137 -65 0
-137 88 0
137 14 -6 43 -1 -93 24 30 -10 65 -88 0
-138 -18 0
-138 26 0
-138 -84 0
-138 -89 0
-138 96 0
-138 5 0
-138 -20 0
-138 -22 0
-138 -75 0
-138 34 0
138 18 -26 84 89 -96 -5 20 22 75 -34 0
-139 81 0
-139 -85 0
-139 72 0
-139 66 0
-139 -9 0
-139 -68 0
-139 -20 0
-139 -89 0
-139 18 0
-139 -38 0
139 -81 85 -72 -66 9 68 20 89 -18 38 0
-140 49 0
-140 -90 0
-140 -91 0
-140 86 0
-140 -69 0
-140 71 0
-140 -23 0
-140 32 0
-140 -25 0
-140 59 0
140 -49 90 91 -86 69 -71 23 -32 25 -59 0
131 132 133 134 135 136 137 138 139 140 0
-141 4 0
-141 78 0
-141 34 0
-141 86 0
-141 62 0
-141 90 0
-141 28 0
-141 45 0
-141 72 0
-141 -17 0
141 -4 -78 -34 -86 -62 -90 -28 -45 -72 17 0
-142 54 0
-142 30 0
-142 -81 0
-142 12 0
-142 71 0
-142 58 0
-142 17 0
-142 72 0
-142 29 0
-142 96 0
142 -54 -30 81 -12 -71 -58 -17 -72 -29 -96 0
-143 -58 0
-143 -75 0
-143 35 0
-143 -62 0
-143 -92 0
-143 76 0
-143 57 0
-143 -98 0
-143 32 0
-143 -26 0
143 58 75 -35 62 92 -76 -57 98 -32 26 0
-144 45 0
-144 27 0
-144 -46 0
-144 9 0
-144 73 0
-144 -57 0
-144 22 0
-144 -39 0
-144 5 0
-144 99 0
144 -45 -27 46 -9 -73 57 -22 39 -5 -99 0
-145 -90 0
-145 84 0
-145 65 0
-145 -4 0
-145 -5 0
-145 54 0
-145 77 0
-145 33 0
-145 -61 0
-145 32 0
145 90 -84 -65 4 5 -54 -77 -33 61 -32 0
-146 -83 0
-146 -28 0
-146 -25 0
-146 86 0
-146 69 0
-146 -52 0
-146 56 0
-146 -20 0
-146 67 0
-146 46 0
146 83 28 25 -86 -69 52 -56 20 -67 -46 0
-147 36 0
-147 -54 0
-147 52 0
-147 57 0
-147 43 0
-147 38 0
-147 -66 0
-147 -46 0
-147 89 0
-147 -69 0
147 -36 54 -52 -57 -43 -38 66 46 -89 69 0
-148 36 0
-148 64 0
-148 95 0
-148 44 0
-148 19 0
-148 -57 0
-148 -65 0
-148 48 0
-148 -22 0
-148 -43 0
148 -36 -64 -95 -44 -19 57 65 -48 22 43 0
-149 -25 0
-149 -34 0
-149 -87 0
-149 71 0
-149 89 0
-149 15 0
-149 -41 0
-149 45 0
-149 -76 0
-149 -100 0
149 25 34 87 -71 -89 -15 41 -45 76 100 0
-150 92 0
-150 -1 0
-150 25 0
-150 55 0
-150 -38 0
-150 -18 0
-150 69 0
-150 20 0
-150 -45 0
-150 -19 0
150 -92 1 -25 -55 38 18 -69 -20 45 19 0
141 142 143 144 145 146 147 148 149 150 0
-151 -99 0
-151 -18 0
-151 -94 0
-151 100 0
-151 24 0
-151 39 0
-151 -59 0
-151 -98 0
-151 64 0
-151 78 0
151 99 18 94 -100 -24 -39 59 98 -64 -78 0
-152 76 0
-152 62 0
-152 -7 0
-152 19 0
-152 -10 0
-152 6 0
-152 -78 0
-152 57 0
-152 94 0
-152 -71 0
152 -76 -62 7 -19 10 -6 78 -57 -94 71 0
-153 -7 0
-153 31 0
-153 -100 0
-153 -23 0
-153 12 0
-153 88 0
-153 30 0
-153 -86 0
-153 -4 0
-153 -15 0
153 7 -31 100 23 -12 -88 -30 86 4 15 0
-154 85 0
-154 -57 0
-154 49 0
-154 75 0
-154 44 0
-154 1 0
-154 34 0
-154 96 0
-154 30 0
-154 -93 0
154 -85 57 -49 -75 -44 -1 -34 -96 -30 93 0
-155 26 0
-155 99 0
-155 -71 0
-155 32 0
-155 -23 0
-155 69 0
-155 95 0
-155 18 0
-155 -80 0
-155 -97 0
155 -26 -99 71 -32 23 -69 -95 -18 80 97 0
-156 -14 0
-156 -51 0
-156 -95 0
-156 -81 0
-156 22 0
-156 -16 0
-156 -79 0
-156 20 0
-156 43 0
-156 -40 0
156 14 51 95 81 -22 16 79 -20 -43 40 0
-157 94 0
-157 -78 0
-157 13 0
-157 31 0
-157 67 0
-157 -21 0
-157 -8 0
-157 -61 0
-157 -40 0
-157 22 0
157 -94 78 -13 -31 -67 21 8 61 40 -22 0
-158 -55 0
-158 -19 0
-158 49 0
-158 10 0
-158 -81 0
-158 21 0
-158 -27 0
-158 -69 0
-158 79 0
-158 98 0
158 55 19 -49 -10 81 -21 27 69 -79 -98 0
-159 26 0
-159 25 0
-159 -71 0
-159 -47 0
-159 -55 0
-159 83 0
-159 -74 0
-159 -24 0
-159 18 0
-159 -5 0
159 -26 -25 71 47 55 -83 74 24 -18 5 0
-160 -22 0
-160 68 0
-160 4 0
-160 38 0
-160 44 0
-160 96 0
-160 49 0
-160 73 0
-160 -95 0
-160 -8 0
160 22 -68 -4 -38 -44 -96 -49 -73 95 8 0
151 152 153 154 155 156 157 158 159 160 0
-161 -7 0
-161 37 0
-161 -89 0
-161 16 0
-161 20 0
-161 43 0
-161 6 0
-161 26 0
-161 31 0
-161 -9 0
161 7 -37 89 -16 -20 -43 -6 -26 -31 9 0
-162 -67 0
-162 -53 0
-162 100 0
-162 6 0
-162 -80 0
-162 49 0
-162 -4 0
-162 -57 0
-162 -40 0
-162 -33 0
162 67 53 -100 -6 80 -49 4 57 40 33 0
-163 -38 0
-163 -65 0
-163 -63 0
-163 -82 0
-163 -69 0
-163 41 0
-163 88 0
-163 52 0
-163 -60 0
-163 68 0
163 38 65 63 82 69 -41 -88 -52 60 -68 0
-164 15 0
-164 -79 0
-164 21 0
-164 -65 0
-164 43 0
-164 -71 0
-164 -2 0
-164 -60 0
-164 -54 0
-164 63 0
164 -15 79 -21 65 -43 71 2 60 54 -63 0
-165 -19 0
-165 -39 0
-165 28 0
-165 50 0
-165 -85 0
-165 93 0
-165 -27 0
-165 13 0
-165 47 0
-165 -22 0
165 19 39 -28 -50 85 -93 27 -13 -47 22 0
-166 -33 0
-166 -41 0
-166 25 0
-166 -56 0
-166 71 0
-166 -15 0
-166 63 0
-166 47 0
-166 -51 0
-166 6 0
166 33 41 -25 56 -71 15 -63 -47 51 -6 0
-167 -90 0
-167 -14 0
-167 23 0
-167 -66 0
-167 -34 0
-167 87 0
-167 -40 0
-167 -56 0
-167 5 0
-167 86 0
167 90 14 -23 66 34 -87 40 56 -5 -86 0
-168 23 0
-168 60 0
-168 62 0
-168 -10 0
-168 -19 0
-168 41 0
-168 -54 0
-168 -73 0
-168 -80 0
-168 68 0
168 -23 -60 -62 10 19 -41 54 73 80 -68 0
-169 -3 0
-169 84 0
-169 -32 0
-169 -64 0
-169 59 0
-169 -33 0
-169 10 0
-169 -86 0
-169 89 0
-169 -99 0
169 3 -84 32 64 -59 33 -10 86 -89 99 0
-170 -18 0
-170 31 0
-170 -79 0
-170 -76 0
-170 77 0
-170 -89 0
-170 16 0
-170 -62 0
-170 54 0
-170 17 0
170 18 -31 79 76 -77 89 -16 62 -54 -17 0
161 162 163 164 165 166 167 168 169 170 0
-171 -56 0
-171 -58 0
-171 52 0
-171 89 0
-171 46 0
-171 90 0
-171 -82 0
-171 97 0
-171 60 0
-171 3 0
171 56 58 -52 -89 -46 -90 82 -97 -60 -3 0
-172 69 0
-172 9 0
-172 -25 0
-172 34 0
-172 -41 0
-172 -12 0
-172 -27 0
-172 52 0
-172 -83 0
-172 55 0
172 -69 -9 25 -34 41 12 27 -52 83 -55 0
-173 -77 0
-173 14 0
-173 94 0
-173 -10 0
-173 50 0
-173 33 0
-173 31 0
-173 65 0
-173 -79 0
-173 34 0
173 77 -14 -94 10 -50 -33 -31 -65 79 -34 0
-174 -51 0
-174 80 0
-174 -40 0
-174 19 0
-174 9 0
-174 -42 0
-174 -15 0
-174 68 0
-174 65 0
-174 26 0
174 51 -80 40 -19 -9 42 15 -68 -65 -26 0
-175 -27 0
-175 -70 0
-175 -37 0
-175 4 0
-175 -58 0
-175 -55 0
-175 -100 0
-175 64 0
-175 -23 0
-175 -43 0
175 27 70 37 -4 58 55 100 -64 23 43 0
-176 45 0
-176 83 0
-176 76 0
-176 -24 0
-176 16 0
-176 80 0
-176 61 0
-176 6 0
-176 -84 0
-176 -8 0
176 -45 -83 -76 24 -16 -80 -61 -6 84 8 0
-177 86 0
-177 19 0
-177 46 0
-177 61 0
-177 -96 0
-177 45 0
-177 88 0
-177 -54 0
-177 -80 0
-177 -50 0
177 -86 -19 -46 -61 96 -45 -88 54 80 50 0
-178 -30 0
-178 77 0
-178 -10 0
-178 62 0
-178 -64 0
-178 -71 0
-178 -99 0
-178 96 0
-178 5 0
-178 -31 0
178 30 -77 10 -62 64 71 99 -96 -5 31 0
-179 43 0
-179 -71 0
-179 -5 0
-179 39 0
-179 32 0
-179 67 0
-179 79 0
-179 96 0
-179 24 0
-179 25 0
179 -43 71 5 -39 -32 -67 -79 -96 -24 -25 0
-180 -72 0
-180 54 0
-180 14 0
-180 -10 0
-180 -42 0
-180 -18 0
-180 12 0
-180 39 0
-180 45 0
-180 -90 0
180 72 -54 -14 10 42 18 -12 -39 -45 90 0
171 172 173 174 175 176 177 178 179 180 0
-181 -6 0
-181 9 0
-181 40 0
-181 43 0
-181 -59 0
-181 -98 0
-181 -77 0
-181 31 0
-181 -55 0
-181 -29 0
181 6 -9 -40 -43 59 98 77 -31 55 29 0
-182 69 0
-182 -39 0
-182 -45 0
-182 -49 0
-182 12 0
-182 -52 0
-182 96 0
-182 9 0
-182 65 0
-182 78 0
182 -69 39 45 49 -12 52 -96 -9 -65 -78 0
-183 -35 0
-183 -20 0
-183 -80 0
-183 65 0
-183 -28 0
-183 6 0
-183 -29 0
-183 13 0
-183 -62 0
-183 68 0
183 35 20 80 -65 28 -6 29 -13 62 -68 0
-184 -79 0
-184 1 0
-184 -42 0
-184 -3 0
-184 65 0
-184 -48 0
-184 -20 0
-184 33 0
-184 68 0
-184 -71 0
184 79 -1 42 3 -65 48 20 -33 -68 71 0
-185 14 0
-185 30 0
-185 -2 0
-185 83 0
-185 -92 0
-185 -88 0
-185 -56 0
-185 -73 0
-185 22 0
-185 27 0
185 -14 -30 2 -83 92 88 56 73 -22 -27 0
-186 -33 0
-186 -84 0
-186 29 0
-186 -14 0
-186 -32 0
-186 -8 0
-186 18 0
-186 63 0
-186 69 0
-186 87 0
186 33 84 -29 14 32 8 -18 -63 -69 -87 0
-187 100 0
-187 -98 0
-187 12 0
-187 -54 0
-187 85 0
-187 2 0
-187 -64 0
-187 19 0
-187 62 0
-187 -53 0
187 -100 98 -12 54 -85 -2 64 -19 -62 53 0
-188 17 0
-188 -66 0
-188 -18 0
-188 -60 0
-188 2 0
-188 43 0
-188 6 0
-188 1 0
-188 -51 0
-188 69 0
188 -17 66 18 60 -2 -43 -6 -1 51 -69 0
-189 48 0
-189 -15 0
-189 -47 0
-189 -37 0
-189 62 0
-189 68 0
-189 -10 0
-189 -7 0
-189 -35 0
-189 30 0
189 -48 15 47 37 -62 -68 10 7 35 -30 0
-190 68 0
-190 75 0
-190 -62 0
-190 61 0
-190 64 0
-190 -1 0
-190 85 0
-190 38 0
-190 69 0
-190 70 0
190 -68 -75 62 -61 -64 1 -85 -38 -69 -70 0
181 182 183 184 185 186 187 188 189 190 0
-191 -39 0
-191 -79 0
-191 55 0
-191 23 0
-191 82 0
-191 -16 0
-191 20 0
-191 -72 0
-191 27 0
-191 -78 0
191 39 79 -55 -23 -82 16 -20 72 -27 78 0
-192 18 0
-192 51 0
-192 61 0
-192 -25 0
-192 45 0
-192 -86 0
-192 82 0
-192 -10 0
-192 -17 0
-192 67 0
192 -18 -51 -61 25 -45 86 -82 10 17 -67 0
-193 -55 0
-193 3 0
-193 -88 0
-193 77 0
-193 79 0
-193 -61 0
-193 14 0
-193 28 0
-193 44 0
-193 -31 0
193 55 -3 88 -77 -79 61 -14 -28 -44 31 0
-194 -80 0
-194 45 0
-194 30 0
-194 93 0
-194 84 0
-194 -83 0
-194 89 0
-194 66 0
-194 -21 0
-194 3 0
194 80 -45 -30 -93 -84 83 -89 -66 21 -3 0
-195 -78 0
-195 -37 0
-195 -93 0
-195 -48 0
-195 -6 0
-195 32 0
-195 -73 0
-195 67 0
-195 -33 0
-195 -79 0
195 78 37 93 48 6 -32 73 -67 33 79 0
-196 99 0
-196 91 0
-196 76 0
-196 -98 0
-196 56 0
-196 -45 0
-196 -43 0
-196 18 0
-196 -66 0
-196 -37 0
196 -99 -91 -76 98 -56 45 43 -18 66 37 0
-197 91 0
-197 -36 0
-197 -27 0
-197 -55 0
-197 -88 0
-197 37 0
-197 7 0
-197 -75 0
-197 40 0
-197 30 0
197 -91 36 27 55 88 -37 -7 75 -40 -30 0
-198 37 0
-198 -73 0
-198 -5 0
-198 53 0
-198 30 0
-198 -36 0
-198 15 0
-198 17 0
-198 -51 0
-198 94 0
198 -37 73 5 -53 -30 36 -15 -17 51 -94 0
-199 -59 0
-199 94 0
-199 27 0
-199 30 0
-199 17 0
-199 -22 0
-199 -51 0
-199 9 0
-199 -18 0
-199 -85 0
199 59 -94 -27 -30 -17 22 51 -9 18 85 0
-200 28 0
-200 9 0
-200 -98 0
-200 -73 0
-200 -48 0
-200 24 0
-200 -31 0
-200 -42 0
-200 32 0
-200 -86 0
200 -28 -9 98 73 48 -24 31 42 -32 86 0
191 192 193 194 195 196 197 198 199 200 0
